12 31
1 2 1
1 3 0
1 4 1
1 5 0
1 6 0
1 7 1
1 8 0
1 9 1
1 10 0
1 11 0
1 12 1
2 3 1
2 4 1
2 5 1
2 6 1
2 7 1
2 8 1
2 9 0
2 10 1
2 11 0
2 12 0
3 4 0
3 5 1
3 6 0
3 7 1
3 8 0
3 9 0
3 10 0
3 11 1
3 12 1
4 5 0
4 6 1
4 7 0
4 8 1
4 9 0
4 10 1
4 11 0
4 12 0
5 6 1
5 7 0
5 8 0
5 9 0
5 10 1
5 11 0
5 12 0
6 7 1
6 8 0
6 9 0
6 10 0
6 11 0
6 12 1
7 8 0
7 9 1
7 10 1
7 11 1
7 12 0
8 9 1
8 10 0
8 11 0
8 12 0
9 10 1
9 11 1
9 12 0
10 11 1
10 12 0
11 12 1
